1000 1 19 1001 1001 1001 1001 1001 1001 1001 1001 1001 1001 1001 1001 1001 1001 1001 1001 1001 1001 1001 1001 1001 1001 1001 1001 1001 1001 1001 1001 1001 1001 1001 1001 1001 1001 1001 1001 1001 1001 -36 662 39 983 469 397 649 705 395 7 563 387 910 736 327 1000 280 892 879 815 635 788 209 208 941 194 646 587 161 106 729 440 88 687 799 129 627 823 47 920 291 516 514 916 618 333 149 53 907 171 202 506 290 -116 921 993 220 371 594 513 893 153 719 428 75 450 319 630 357 783 800 217 15 443 424 853 742 676 894 206 363 94 622 990 14 534 952 297 724 478 878 245 396 178 444 78 74 97 35 441 886 537 105 410 658 519 -139 364 386 155 832 192 246 228 813 616 865 110 890 976 843 766 747 389 286 1 533 660 827 445 638 875 510 13 135 902 200 560 260 90 296 322 974 882 46 213 355 874 453 392 372 87 -191 503 113 193 718 738 339 648 309 784 851 960 117 939 104 737 51 697 182 375 362 360 232 955 721 963 647 44 595 524 127 656 841 418 545 118 240 995 789 891 305 505 981 48 147 911 581 400 710 -313 251 977 250 872 481 276 197 358 334 573 341 554 543 439 817 164 128 592 388 621 434 755 123 958 122 96 722 211 121 483 99 808 713 359 247 23 195 999 66 759 714 954 854 431 177 801 787 964 750 154 539 -316 946 806 284 235 337 255 456 889 686 405 530 150 231 288 484 957 494 323 132 244 131 752 210 307 187 317 626 498 869 71 399 266 398 277 804 292 56 980 979 855 495 919 764 566 130 241 593 557 294 912 184 -349 20 476 54 561 996 811 610 835 417 482 492 931 748 174 629 698 278 810 876 790 699 321 448 861 134 103 401 992 186 212 933 21 125 655 768 822 762 93 728 735 272 465 665 438 426 667 973 411 95 -350 951 381 805 986 80 41 970 258 601 777 238 84 473 831 146 328 985 310 253 619 455 824 114 842 591 570 480 901 971 70 756 173 518 326 470 617 366 300 565 683 645 650 447 324 590 695 597 830 692 348 402 100 -454 73 852 917 846 550 451 459 314 812 219 347 693 262 794 373 409 68 408 367 761 152 685 442 167 508 404 744 242 254 623 268 773 884 684 379 643 720 234 223 751 642 749 733 730 873 380 156 555 819 935 285 821 691 86 897 -493 436 677 351 564 968 988 33 760 61 162 837 263 972 840 904 836 927 112 726 584 28 82 353 509 688 940 956 600 715 420 511 101 961 998 356 248 259 745 109 945 614 577 270 682 472 252 287 229 881 568 779 230 870 580 -547 421 59 816 368 899 536 953 991 778 668 740 160 556 867 306 385 283 77 795 275 437 499 781 526 521 376 608 947 943 107 471 384 741 607 544 780 895 596 702 671 978 464 196 501 930 330 585 474 214 60 959 997 126 144 281 848 -624 704 809 639 798 871 308 908 500 776 538 274 488 708 717 877 92 770 829 834 586 885 975 342 79 102 151 403 928 552 559 669 340 26 856 923 661 659 948 496 637 119 416 148 636 620 63 98 838 65 344 651 430 652 -802 89 76 279 37 257 108 654 640 754 674 120 345 866 602 318 49 709 433 142 62 966 30 466 588 293 43 611 239 225 938 143 814 579 45 407 845 734 222 767 140 463 857 8 42 406 304 859 394 302 343 57 312 689 625 329 887 -807 548 72 583 703 168 393 678 124 111 377 833 731 599 914 549 633 924 458 264 771 175 732 315 785 575 176 562 249 758 657 218 413 382 468 199 681 265 115 572 757 858 303 338 179 452 896 487 390 839 50 576 19 6 -818 490 782 204 934 22 826 295 644 12 915 765 558 236 16 932 666 180 133 925 711 609 905 701 663 706 613 628 909 696 868 485 52 527 883 10 906 460 634 17 504 169 796 918 967 774 461 497 267 138 166 746 507 743 415 -850 145 67 432 449 491 786 672 325 446 141 828 598 429 185 632 29 987 32 523 546 83 423 216 475 528 574 612 2 903 486 331 383 763 422 753 540 844 515 370 965 467 589 926 679 603 165 27 888 -880 203 269 849 653 435 522 569 489 346 517 301 936 271 391 172 18 551 641 578 24 982 419 38 532 615 352 85 863 791 159 226 700 680 864 335 5 989 205 707 664 725 374 189 604 69 937 529 727 320 716 520 207 542 58 950 -898 803 739 793 512 825 11 25 792 256 571 412 820 847 673 769 457 215 631 378 502 55 531 298 91 64 425 81 188 40 797 365 233 136 605 913 224 477 541 922 237 670 525 427 606 190 775 414 535 994 336 553 944 -984 170 354 183 198 282 163 221 201 332 4 694 227 929 462 772 261 479 567 34 181 9 289 582 31 942 675 361 949 900 369 311 969 862 690 157 3 299 712 723 962 860 243 158 273 137 0 
19.000000 72.672712 2786.423150 2713.750438 -0.413813 2509.248840 2509.662653 2.146604 2535.923149 2533.776545 -0.041595 6762.142136 6762.183731 10.537372 2480.508121 2469.970749 23.292558 2400.309004 2377.016446 58.384566 2400.368320 2341.983754 -0.248809 2444.609126 2444.857935 102.676383 2764.472783 2661.796400 94.410895 2330.010773 2235.599878 -0.345564 2312.413745 2312.759309 36.827210 2778.931867 2742.104657 -0.051248 2399.949011 2400.000259 8.953513 2325.433611 2316.480098 31.393676 2459.747783 2428.354107 -0.120990 2302.023917 2302.144907 283.211970 2593.728455 2310.516485 -0.027756 6116.901699 6116.929455 47.919700 2478.699322 2430.779622 1000.000000 0.000000 0.000000 0.000000 0.000000 0.000000 0.000000 0.000000 0.000000 0.000000 0.000000 0.000000 0.000000 0.000000 0.000000 0.000000 0.000000 0.000000 0.000000 0.000000 0.000000 0.000000 0.000000 0.000000 0.000000 0.000000 0.000000 0.000000 0.000000 0.000000 0.000000 0.000000 0.000000 0.000000 0.000000 0.000000 0.000000 0.000000 0.000000 0.000000 0.000000 0.000000 0.000000 0.000000 0.000000 0.000000 0.000000 0.000000 0.000000 0.000000 0.000000 0.000000 0.000000 0.000000 0.000000 0.000000 0.000000 0.000000 0.000000 0.000000 0.000000 0.000000 0.000000 0.000000 0.000000 0.000000 0.000000 0.000000 0.000000 0.000000 0.000000 0.000000 0.000000 0.000000 0.000000 0.000000 0.000000 0.000000 0.000000 0.000000 0.000000 0.000000 0.000000 0.000000 0.000000 0.000000 0.000000 0.000000 0.000000 0.000000 0.000000 0.000000 0.000000 0.000000 0.000000 0.000000 0.000000 0.000000 0.000000 0.000000 0.000000 0.000000 0.000000 0.000000 0.000000 0.000000 0.000000 0.000000 0.000000 0.000000 0.000000 0.000000 0.000000 0.000000 0.000000 0.000000 0.000000 0.000000 9.508896 0.000000 0.000000 0.000000 0.000000 0.000000 0.000000 0.000000 0.000000 3083.972926 0.000000 0.000000 0.000000 0.000000 0.000000 0.000000 0.000000 0.000000 0.000000 0.000000 0.000000 0.000000 0.000000 0.000000 0.000000 0.000000 0.000000 0.000000 0.000000 0.000000 0.000000 0.000000 0.000000 0.000000 0.000000 0.000000 0.000000 0.000000 0.000000 0.000000 0.000000 0.000000 0.000000 0.000000 0.000000 0.000000 0.000000 0.000000 0.000000 0.000000 0.000000 0.000000 0.000000 0.000000 0.000000 0.000000 0.000000 0.000000 0.000000 0.000000 0.000000 0.000000 0.000000 0.000000 0.000000 0.000000 0.000000 0.000000 0.000000 0.000000 0.000000 0.000000 361.909278 0.000000 0.000000 0.000000 0.000000 0.000000 0.000000 0.000000 0.000000 0.000000 0.000000 0.000000 0.000000 0.000000 0.000000 0.000000 0.000000 0.000000 0.000000 0.000000 0.000000 0.000000 0.000000 0.000000 0.000000 0.000000 0.000000 0.000000 0.000000 0.000000 0.000000 0.000000 0.000000 0.000000 0.000000 0.000000 0.000000 0.000000 0.000000 0.000000 0.000000 0.000000 0.000000 0.000000 0.000000 0.000000 0.000000 0.000000 0.000000 0.000000 185.798104 0.000000 0.000000 0.000000 0.000000 0.000000 0.000000 0.000000 0.000000 0.000000 0.000000 0.000000 0.000000 0.000000 0.000000 0.000000 0.000000 0.000000 0.000000 0.000000 0.000000 0.000000 0.000000 0.000000 0.000000 0.000000 0.000000 0.000000 0.000000 0.000000 0.000000 0.000000 0.000000 0.000000 0.000000 0.000000 0.000000 0.000000 0.000000 0.000000 0.000000 0.000000 0.000000 0.000000 0.000000 0.000000 0.000000 0.000000 0.000000 0.000000 0.000000 0.000000 0.000000 0.000000 0.000000 0.000000 0.000000 0.000000 0.000000 0.000000 0.000000 0.000000 0.000000 0.000000 0.000000 21.028139 0.000000 0.000000 0.000000 0.000000 0.000000 0.000000 0.000000 0.000000 0.000000 0.000000 0.000000 0.000000 0.000000 0.000000 0.000000 0.000000 0.000000 0.000000 0.000000 0.000000 0.000000 0.000000 0.000000 0.000000 0.000000 0.000000 0.000000 0.000000 0.000000 0.000000 246.593196 0.000000 0.000000 0.000000 0.000000 0.000000 0.000000 0.000000 0.000000 0.000000 0.000000 0.000000 0.000000 0.000000 0.000000 0.000000 0.000000 0.000000 0.000000 0.000000 0.000000 0.000000 0.000000 0.000000 0.000000 0.000000 0.000000 0.000000 0.000000 0.000000 0.000000 0.000000 0.000000 0.000000 0.000000 0.000000 0.000000 0.000000 0.000000 0.000000 0.000000 0.000000 0.000000 0.000000 0.000000 0.000000 0.000000 0.000000 0.000000 0.000000 0.000000 0.000000 0.000000 0.000000 0.000000 0.000000 0.000000 0.000000 0.000000 0.000000 0.000000 0.000000 0.000000 0.000000 0.000000 0.000000 0.000000 0.000000 0.000000 0.000000 0.000000 0.000000 0.000000 0.000000 0.000000 0.000000 0.000000 0.000000 0.000000 0.000000 0.000000 0.000000 0.000000 0.000000 0.000000 0.000000 0.000000 0.000000 0.000000 0.000000 0.000000 0.000000 0.000000 0.000000 0.000000 0.000000 0.000000 0.000000 0.000000 0.000000 0.000000 0.000000 0.000000 0.000000 0.000000 0.000000 0.000000 0.000000 0.000000 0.000000 0.000000 0.000000 0.000000 0.000000 0.000000 0.000000 0.000000 0.000000 0.000000 0.000000 0.000000 0.000000 0.000000 0.000000 0.000000 0.000000 0.000000 0.000000 0.000000 0.000000 0.000000 0.000000 0.000000 0.000000 0.000000 0.000000 0.000000 0.000000 0.000000 0.000000 0.000000 0.000000 0.000000 0.000000 0.000000 0.000000 0.000000 0.000000 0.000000 0.000000 0.000000 0.000000 0.000000 0.000000 0.000000 0.000000 0.000000 0.000000 0.000000 0.000000 0.000000 0.000000 0.000000 0.000000 0.000000 0.000000 0.000000 0.000000 0.000000 76.702941 0.000000 0.000000 0.000000 0.000000 0.000000 0.000000 0.000000 0.000000 0.000000 0.000000 0.000000 0.000000 0.000000 0.000000 0.000000 0.000000 0.000000 0.000000 0.000000 0.000000 0.000000 0.000000 0.000000 0.000000 0.000000 0.000000 0.000000 0.000000 0.000000 54.550745 0.000000 0.000000 0.000000 0.000000 0.000000 0.000000 0.000000 0.000000 0.000000 0.000000 0.000000 0.000000 0.000000 0.000000 0.000000 0.000000 0.000000 270.560911 0.000000 0.000000 0.000000 0.000000 0.000000 0.000000 0.000000 0.000000 0.000000 0.000000 0.000000 0.000000 0.000000 0.000000 0.000000 0.000000 0.000000 0.000000 0.000000 0.000000 0.000000 0.000000 0.000000 0.000000 0.000000 0.000000 0.000000 440.219503 0.000000 0.000000 0.000000 0.000000 0.000000 0.000000 0.000000 0.000000 0.000000 0.000000 0.000000 0.000000 0.000000 0.000000 0.000000 0.000000 0.000000 0.000000 0.000000 0.000000 0.000000 0.000000 0.000000 0.000000 2488.801994 0.000000 0.000000 0.000000 0.000000 0.000000 0.000000 0.000000 0.000000 0.000000 0.000000 0.000000 0.000000 0.000000 0.000000 0.000000 0.000000 0.000000 0.000000 0.000000 0.000000 0.000000 0.000000 0.000000 0.000000 0.000000 0.000000 0.000000 0.000000 0.000000 0.000000 0.000000 0.000000 0.000000 0.000000 0.000000 0.000000 0.000000 0.000000 0.000000 0.000000 0.000000 0.000000 0.000000 0.000000 0.000000 0.000000 0.000000 0.000000 0.000000 0.000000 0.000000 0.000000 0.000000 0.000000 0.000000 0.000000 0.000000 0.000000 0.000000 0.000000 0.000000 0.000000 0.000000 0.000000 0.000000 0.000000 0.000000 0.000000 0.000000 0.000000 0.000000 0.000000 0.000000 0.000000 0.000000 0.000000 0.000000 0.000000 0.000000 0.000000 0.000000 0.000000 0.000000 0.000000 0.000000 0.000000 0.000000 0.000000 0.000000 0.000000 0.000000 0.000000 0.000000 0.000000 0.000000 0.000000 0.000000 0.000000 0.000000 0.000000 0.000000 0.000000 0.000000 42.486276 0.000000 0.000000 0.000000 0.000000 0.000000 0.000000 0.000000 0.000000 0.000000 0.000000 0.000000 0.000000 0.000000 0.000000 0.000000 0.000000 0.000000 0.000000 0.000000 0.000000 0.000000 0.000000 0.000000 0.000000 0.000000 0.000000 0.000000 0.000000 0.000000 0.000000 0.000000 0.000000 0.000000 0.000000 0.000000 0.000000 0.000000 0.000000 0.000000 0.000000 0.000000 0.000000 0.000000 0.000000 0.000000 0.000000 0.000000 0.000000 0.000000 0.000000 0.000000 0.000000 0.000000 0.000000 0.000000 0.000000 0.000000 0.000000 0.000000 0.000000 0.000000 0.000000 0.000000 0.000000 0.000000 0.000000 0.000000 0.000000 0.000000 0.000000 0.000000 0.000000 0.000000 0.000000 0.000000 0.000000 0.000000 0.000000 35.761141 0.000000 0.000000 0.000000 0.000000 0.000000 0.000000 0.000000 0.000000 0.000000 0.000000 0.000000 0.000000 0.000000 0.000000 0.000000 0.000000 0.000000 0.000000 0.000000 0.000000 0.000000 0.000000 0.000000 0.000000 0.000000 0.000000 0.000000 0.000000 0.000000 0.000000 0.000000 0.000000 0.000000 0.000000 0.000000 0.000000 0.000000 0.000000 0.000000 0.000000 0.000000 0.000000 0.000000 0.000000 0.000000 0.000000 0.000000 0.000000 0.000000 0.000000 0.000000 0.000000 0.000000 0.000000 0.000000 0.000000 0.000000 0.000000 0.000000 0.000000 0.000000 0.000000 0.000000 0.000000 0.000000 0.000000 0.000000 0.000000 0.000000 0.000000 0.000000 0.000000 0.000000 0.000000 0.000000 0.000000 0.000000 0.000000 0.000000 0.000000 0.000000 0.000000 0.000000 0.000000 0.000000 0.000000 0.000000 0.000000 0.000000 0.000000 0.000000 0.000000 0.000000 0.000000 0.000000 0.000000 0.000000 0.000000 0.000000 0.000000 0.000000 0.000000 0.000000 0.000000 0.000000 0.000000 0.000000 0.000000 0.000000 0.000000 0.000000 0.000000 0.000000 0.000000 0.000000 0.000000 0.000000 0.000000 0.000000 0.000000 0.000000 5.020544 0.000000 0.000000 0.000000 0.000000 0.000000 0.000000 0.000000 0.000000 0.000000 0.000000 0.000000 0.000000 0.000000 0.000000 0.000000 0.000000 0.000000 0.000000 0.000000 0.000000 0.000000 0.000000 0.000000 0.000000 0.000000 0.000000 0.000000 0.000000 0.000000 0.000000 0.000000 0.000000 258.546376 0.000000 0.000000 0.000000 0.000000 0.000000 0.000000 0.000000 0.000000 0.000000 0.000000 0.000000 0.000000 0.000000 0.000000 0.000000 0.000000 0.000000 0.000000 0.000000 0.000000 0.000000 0.000000 0.000000 0.000000 0.000000 0.000000 0.000000 0.000000 0.000000 0.000000 0.000000 0.000000 0.000000 0.000000 0.000000 0.000000 25.909278 0.000000 0.000000 0.000000 0.000000 0.000000 0.000000 0.000000 0.000000 0.000000 0.000000 0.000000 0.000000 0.000000 196.428945 0.000000 0.000000 0.000000 0.000000 0.000000 




Total_objective=
17597593.777128
Best_SOL_TIME=
39.090000
BEST_KNOWN=
1073741824.000
ComputeTime=
147.92
Route_num=
19
Routes_len=
36606.868
Total_travel_time=
36606.87
Total_service_time=
54410.67
Total_early_time=
1755999.96
Total_late_time=
98.73


StartTemperarture=20.000   
CoolRatio=0.990000  
Num_loops=500  
VoronoiRank=1 
Border_VK=0
